Nb of jobs, Nb of Machines, Time seed, Machine seed, Upper bound, Lower bound
3,6,-1,-1,-1,-1
Times
35,48,84,41,86,46
89,35,83,53,24,92
54,90,75,48,1,31
Machines
6,3,5,4,1,2
1,3,6,5,2,4
1,2,5,3,6,4
